
Gurobi 11.0.1 (win64) logging started Wed Mar 13 20:00:59 2024

Set parameter LogFile to value "C:\Projetos\Job_Rotation_Algorithms\Outputs\GurobiLogs\gurobi_log-output-52_ros-c10-CostaMirallesModel-NoExtraConstraint-2.log"
Gurobi Optimizer version 11.0.1 build v11.0.1rc0 (win64 - Windows 10.0 (19045.2))

CPU model: 11th Gen Intel(R) Core(TM) i7-1165G7 @ 2.80GHz, instruction set [SSE2|AVX|AVX2|AVX512]
Thread count: 4 physical cores, 8 logical processors, using up to 1 threads


Gurobi 11.0.1 (win64) logging started Thu Mar 14 07:59:17 2024

Set parameter LogFile to value "C:\Projetos\Job_Rotation_Algorithms\Outputs\GurobiLogs\gurobi_log-output-52_ros-c10-CostaMirallesModel-NoExtraConstraint-2.log"
Gurobi Optimizer version 11.0.1 build v11.0.1rc0 (win64 - Windows 10.0 (19045.2))

CPU model: 11th Gen Intel(R) Core(TM) i7-1165G7 @ 2.80GHz, instruction set [SSE2|AVX|AVX2|AVX512]
Thread count: 4 physical cores, 8 logical processors, using up to 1 threads


Gurobi 11.0.1 (win64) logging started Fri Mar 15 00:36:43 2024

Set parameter LogFile to value "C:\Projetos\Job_Rotation_Algorithms\Outputs\GurobiLogs\gurobi_log-output-52_ros-c10-CostaMirallesModel-NoExtraConstraint-2.log"
Gurobi Optimizer version 11.0.1 build v11.0.1rc0 (win64 - Windows 10.0 (19045.2))

CPU model: 11th Gen Intel(R) Core(TM) i7-1165G7 @ 2.80GHz, instruction set [SSE2|AVX|AVX2|AVX512]
Thread count: 4 physical cores, 8 logical processors, using up to 1 threads


Gurobi 11.0.1 (win64) logging started Fri Mar 15 18:22:00 2024

Set parameter LogFile to value "C:\Projetos\Job_Rotation_Algorithms\Outputs\GurobiLogs\gurobi_log-output-52_ros-c10-CostaMirallesModel-NoExtraConstraint-2.log"
Gurobi Optimizer version 11.0.1 build v11.0.1rc0 (win64 - Windows 10.0 (19045.2))

CPU model: 11th Gen Intel(R) Core(TM) i7-1165G7 @ 2.80GHz, instruction set [SSE2|AVX|AVX2|AVX512]
Thread count: 4 physical cores, 8 logical processors, using up to 1 threads

WLS license 901039 - registered to Bitka Analytics
Optimize a model with 666 rows, 1569 columns and 16065 nonzeros
Model fingerprint: 0xcb2fb79e
Variable types: 2 continuous, 1567 integer (1567 binary)
Coefficient statistics:
  Matrix range     [1e+00, 3e+01]
  Objective range  [1e+00, 1e+00]
  Bounds range     [1e+00, 2e+01]
  RHS range        [1e+00, 2e+01]
Presolve removed 99 rows and 596 columns
Presolve time: 0.09s
Presolved: 567 rows, 973 columns, 8308 nonzeros
Variable types: 0 continuous, 973 integer (972 binary)

Root relaxation: objective 5.000000e+01, 577 iterations, 0.01 seconds (0.01 work units)

    Nodes    |    Current Node    |     Objective Bounds      |     Work
 Expl Unexpl |  Obj  Depth IntInf | Incumbent    BestBd   Gap | It/Node Time

     0     0   50.00000    0   22          -   50.00000      -     -    0s
     0     0   50.00000    0  234          -   50.00000      -     -    0s
     0     0   50.00000    0  232          -   50.00000      -     -    0s
     0     0   50.00000    0   84          -   50.00000      -     -    0s
     0     0   50.00000    0   91          -   50.00000      -     -    0s
     0     0   50.00000    0  106          -   50.00000      -     -    0s
     0     0   50.00000    0  106          -   50.00000      -     -    0s
     0     2   50.00000    0   99          -   50.00000      -     -    0s
  1109   173   50.00000   20  225          -   50.00000      -   101    5s
  1999   236   49.66667   28  127          -   50.00000      -   116   10s
* 2077   221              22      38.0000000   50.00000  31.6%  12.0   12s

Cutting planes:
  Cover: 29
  Clique: 39
  MIR: 1
  Flow cover: 6
  GUB cover: 9
  Zero half: 1
  RLT: 7
  BQP: 1

Explored 2206 nodes (284013 simplex iterations) in 14.50 seconds (15.78 work units)
Thread count was 1 (of 8 available processors)

Solution count 1: 38 

Optimal solution found (tolerance 1.00e-03)
Best objective 3.800000000000e+01, best bound 3.800000000000e+01, gap 0.0000%
